NAME: eilC76_20
COMMENT: 745.92
VEHICLE: 8
TIME: 44.0814
DIMENSION: 76
CAPACITY: 180
DELIVERY_SECTION
0 0 0
1 1 18
2 2 18
3 2 1.8
4 2 1.8
5 2 1.8
6 2 1.8
7 2 0.8
8 3 9
9 3 1.8
10 3 0.2
11 4 18
12 4 9
13 4 1.8
14 4 1.2
15 5 18
16 5 1.8
17 5 1.2
18 6 18
19 6 1
20 7 9
21 7 1.8
22 7 1.8
23 7 1.8
24 7 0.6
25 8 9
26 8 1.8
27 8 1.8
28 8 1.8
29 8 1.6
30 9 18
31 9 9
32 9 1.8
33 9 0.2
34 10 18
35 10 1.8
36 10 1.8
37 10 1.8
38 10 1.8
39 10 0.8
40 11 36
41 11 1
42 12 9
43 12 1.8
44 12 1.8
45 12 1.8
46 12 1.6
47 13 9
48 13 1.8
49 13 1.2
50 14 18
51 14 9
52 14 1.8
53 14 1.8
54 14 0.4
55 15 1.8
56 15 1.8
57 15 1.8
58 15 1.8
59 15 0.8
60 16 18
61 16 1
62 17 18
63 17 1.8
64 17 0.2
65 18 9
66 18 1.8
67 18 1.8
68 18 0.4
69 19 9
70 19 1.8
71 19 1.8
72 19 1.8
73 19 0.6
74 20 18
75 20 1.8
76 20 1.8
77 20 0.4
78 21 18
79 21 9
80 21 1
81 22 9
82 22 1.8
83 22 1.2
84 23 1.8
85 23 1.8
86 23 1.8
87 23 0.6
88 24 18
89 24 9
90 25 9
91 25 1.8
92 25 1.8
93 25 1.4
94 26 18
95 27 9
96 27 1.8
97 27 1.8
98 27 1.8
99 27 1.8
100 27 0.8
101 28 18
102 28 9
103 28 1.8
104 28 0.2
105 29 9
106 29 1.8
107 29 1.8
108 29 0.4
109 30 18
110 30 1.8
111 30 1.8
112 30 0.4
113 31 18
114 31 1.8
115 31 1.8
116 31 1.8
117 31 1.6
118 32 18
119 32 9
120 32 1
121 33 18
122 33 9
123 34 18
124 34 1
125 35 9
126 35 1
127 36 9
128 36 1.8
129 36 1.2
130 37 9
131 37 1.8
132 37 1.8
133 37 1.4
134 38 18
135 38 1.8
136 38 1.8
137 38 1.8
138 38 0.6
139 39 9
140 39 1.8
141 39 1.8
142 39 1.8
143 39 1.6
144 40 18
145 40 9
146 40 1.8
147 40 1.8
148 40 1.8
149 40 0.6
150 41 9
151 41 1.8
152 41 1.8
153 41 1.8
154 41 0.6
155 42 9
156 42 1.8
157 42 0.2
158 43 18
159 44 9
160 44 1.8
161 44 1.8
162 44 1.8
163 44 1.8
164 44 0.8
165 45 18
166 45 1.8
167 45 1.2
168 46 18
169 46 9
170 47 18
171 47 1
172 48 18
173 48 1.8
174 48 0.2
175 49 1.8
176 49 1.8
177 49 1.4
178 50 18
179 50 1.8
180 50 1.8
181 50 0.4
182 51 9
183 51 1.8
184 51 1.2
185 52 18
186 52 1
187 53 18
188 53 1.8
189 53 1.8
190 53 0.4
191 54 9
192 54 1.8
193 54 1.8
194 54 1.8
195 54 1.6
196 55 1.8
197 55 1.8
198 55 1.8
199 55 1.6
200 56 18
201 56 1.8
202 56 1.8
203 56 1.8
204 56 1.8
205 56 0.8
206 57 9
207 57 1.8
208 57 1.8
209 57 1.4
210 58 18
211 58 1.8
212 58 1.2
213 59 18
214 59 1.8
215 59 1.8
216 59 1.8
217 59 0.6
218 60 9
219 60 1.8
220 60 1.8
221 60 0.4
222 61 9
223 61 1.8
224 61 1.8
225 61 1.8
226 61 0.6
227 62 18
228 63 9
229 63 1.8
230 63 0.2
231 64 18
232 64 9
233 64 1
234 65 9
235 66 36
236 66 1
237 67 18
238 67 9
239 67 1.8
240 67 1.2
241 68 9
242 68 1
243 69 1.8
244 69 1.8
245 69 1.8
246 69 1.8
247 69 0.8
248 70 9
249 70 1.8
250 70 0.2
251 71 1.8
252 71 1.2
253 72 1
254 73 1.8
255 73 1.8
256 73 1.8
257 73 0.6
258 74 9
259 74 1
260 75 18
261 75 1.8
262 75 0.2
PICKUP_SECTION
NODE_SECTION
40 40

22 22

36 26

21 45

45 35

55 20

33 34

50 50

55 45

26 59

40 66

55 65

35 51

62 35

62 57

62 24

21 36

33 44

 9 56

62 48

66 14

44 13

26 13

11 28

 7 43

17 64

41 46

55 34

35 16

52 26

43 26

31 76

22 53

26 29

50 40

55 50

54 10

60 15

47 66

30 60

30 50

12 17

15 14

16 19

21 48

50 30

51 42

50 15

48 21

12 38

15 56

29 39

54 38

55 57

67 41

10 70

 6 25

65 27

40 60

70 64

64  4

36  6

30 20

20 30

15  5

50 70

57 72

45 42

38 33

50  4

66  8

59  5

35 60

27 24

40 20

40 37
DISTANCE_SECTION
DEPOT_SECTION
0
EOF